p cnf 287 214
d 0.875 0.125
d 0.875 0.125
d 0.875 0.125
d 0.875 0.125
d 0.875 0.125
d 0.875 0.125
d 0.875 0.125
d 0.875 0.125
d 0.875 0.125
d 0.875 0.125
d 0.875 0.125
d 0.875 0.125
d 0.875 0.125
d 0.875 0.125
d 0.875 0.125
d 0.875 0.125
d 0.875 0.125
d 0.875 0.125
d 0.875 0.125
d 0.875 0.125
d 0.875 0.125
d 0.875 0.125
d 0.875 0.125
d 0.875 0.125
d 0.875 0.125
d 0.875 0.125
d 0.875 0.125
d 0.875 0.125
d 0.875 0.125
d 0.875 0.125
d 0.875 0.125
d 0.875 0.125
d 0.875 0.125
d 0.875 0.125
d 0.875 0.125
d 0.875 0.125
d 0.875 0.125
d 0.875 0.125
d 0.875 0.125
d 0.875 0.125
d 0.875 0.125
d 0.875 0.125
d 0.875 0.125
d 0.875 0.125
d 0.875 0.125
d 0.875 0.125
d 0.875 0.125
d 0.875 0.125
d 0.875 0.125
d 0.875 0.125
d 0.875 0.125
d 0.875 0.125
d 0.875 0.125
d 0.875 0.125
d 0.875 0.125
d 0.875 0.125
d 0.875 0.125
d 0.875 0.125
d 0.875 0.125
d 0.875 0.125
d 0.875 0.125
d 0.875 0.125
d 0.875 0.125
d 0.875 0.125
d 0.875 0.125
d 0.875 0.125
d 0.875 0.125
d 0.875 0.125
d 0.875 0.125
d 0.875 0.125
d 0.875 0.125
d 0.875 0.125
d 0.875 0.125
d 0.875 0.125
d 0.875 0.125
d 0.875 0.125
d 0.875 0.125
d 0.875 0.125
d 0.875 0.125
d 0.875 0.125
d 0.875 0.125
d 0.875 0.125
d 0.875 0.125
d 0.875 0.125
d 0.875 0.125
d 0.875 0.125
d 0.875 0.125
d 0.875 0.125
d 0.875 0.125
d 0.875 0.125
d 0.875 0.125
d 0.875 0.125
d 0.875 0.125
d 0.875 0.125
d 0.875 0.125
d 0.875 0.125
d 0.875 0.125
d 0.875 0.125
d 0.875 0.125
d 0.875 0.125
d 0.875 0.125
d 0.875 0.125
d 0.875 0.125
d 0.875 0.125
d 0.875 0.125
d 0.875 0.125
247
-225
222 -271 -0
271 -222 -0
258 -270 -2
270 -258 -2
286 -281 -4
281 -286 -4
265 -212 -6
212 -265 -6
245 -244 -8
244 -245 -8
229 -238 -10
238 -229 -10
242 -257 -12
257 -242 -12
215 -238 -14
238 -215 -14
277 -264 -16
264 -277 -16
280 -283 -18
283 -280 -18
239 -281 -20
281 -239 -20
220 -250 -22
250 -220 -22
260 -219 -24
219 -260 -24
256 -277 -26
277 -256 -26
233 -252 -28
252 -233 -28
280 -212 -30
212 -280 -30
243 -236 -32
236 -243 -32
259 -224 -34
224 -259 -34
273 -275 -36
275 -273 -36
226 -238 -38
238 -226 -38
286 -242 -40
242 -286 -40
220 -223 -42
223 -220 -42
283 -282 -44
282 -283 -44
243 -279 -46
279 -243 -46
266 -285 -48
285 -266 -48
233 -268 -50
268 -233 -50
225 -218 -52
218 -225 -52
273 -275 -54
275 -273 -54
286 -245 -56
245 -286 -56
219 -214 -58
214 -219 -58
238 -278 -60
278 -238 -60
269 -265 -62
265 -269 -62
286 -234 -64
234 -286 -64
272 -230 -66
230 -272 -66
263 -242 -68
242 -263 -68
253 -228 -70
228 -253 -70
286 -217 -72
217 -286 -72
274 -235 -74
235 -274 -74
242 -246 -76
246 -242 -76
220 -232 -78
232 -220 -78
216 -276 -80
276 -216 -80
226 -255 -82
255 -226 -82
229 -284 -84
284 -229 -84
246 -249 -86
249 -246 -86
250 -224 -88
224 -250 -88
246 -249 -90
249 -246 -90
280 -283 -92
283 -280 -92
218 -271 -94
271 -218 -94
273 -256 -96
256 -273 -96
256 -222 -98
222 -256 -98
273 -221 -100
221 -273 -100
244 -276 -102
276 -244 -102
285 -247 -104
247 -285 -104
237 -284 -106
284 -237 -106
226 -218 -108
218 -226 -108
239 -217 -110
217 -239 -110
242 -267 -112
267 -242 -112
264 -262 -114
262 -264 -114
248 -214 -116
214 -248 -116
247 -225 -118
225 -247 -118
242 -243 -120
243 -242 -120
250 -271 -122
271 -250 -122
254 -278 -124
278 -254 -124
242 -243 -126
243 -242 -126
286 -217 -128
217 -286 -128
251 -265 -130
265 -251 -130
285 -247 -132
247 -285 -132
286 -281 -134
281 -286 -134
226 -251 -136
251 -226 -136
240 -269 -138
269 -240 -138
216 -253 -140
253 -216 -140
233 -246 -142
246 -233 -142
233 -268 -144
268 -233 -144
276 -268 -146
268 -276 -146
286 -244 -148
244 -286 -148
241 -253 -150
253 -241 -150
261 -267 -152
267 -261 -152
237 -233 -154
233 -237 -154
286 -269 -156
269 -286 -156
258 -238 -158
238 -258 -158
264 -262 -160
262 -264 -160
215 -272 -162
272 -215 -162
245 -216 -164
216 -245 -164
232 -221 -166
221 -232 -166
249 -251 -168
251 -249 -168
242 -265 -170
265 -242 -170
257 -263 -172
263 -257 -172
229 -284 -174
284 -229 -174
248 -219 -176
219 -248 -176
280 -225 -178
225 -280 -178
273 -275 -180
275 -273 -180
226 -250 -182
250 -226 -182
242 -213 -184
213 -242 -184
286 -239 -186
239 -286 -186
272 -232 -188
232 -272 -188
273 -275 -190
275 -273 -190
265 -283 -192
283 -265 -192
237 -252 -194
252 -237 -194
231 -230 -196
230 -231 -196
242 -235 -198
235 -242 -198
242 -213 -200
213 -242 -200
215 -230 -202
230 -215 -202
214 -267 -204
267 -214 -204
227 -213 -206
213 -227 -206
242 -263 -208
263 -242 -208
259 -256 -210
256 -259 -210